This is Ipopt version 3.11.9, running with linear solver mumps.
NOTE: Other linear solvers might be more efficient (see Ipopt documentation).

Number of nonzeros in equality constraint Jacobian...:    15183
Number of nonzeros in inequality constraint Jacobian.:    28920
Number of nonzeros in Lagrangian Hessian.............:        0

Total number of variables............................:      723
                     variables with only lower bounds:        0
                variables with lower and upper bounds:        0
                     variables with only upper bounds:        0
Total number of equality constraints.................:       21
Total number of inequality constraints...............:       40
        inequality constraints with only lower bounds:        0
   inequality constraints with lower and upper bounds:       40
        inequality constraints with only upper bounds:        0

iter    objective    inf_pr   inf_du lg(mu)  ||d||  lg(rg) alpha_du alpha_pr  ls
   0  3.7603382e+00 1.67e-16 9.86e-02   0.0 0.00e+00    -  0.00e+00 0.00e+00   0
   1  3.5503592e+00 1.25e-16 6.27e-02  -3.9 3.88e-02    -  9.94e-01 1.00e+00f  1
   2  3.3886328e+00 1.67e-16 8.89e-02  -4.4 7.15e-02    -  1.00e+00 1.00e+00h  1
   3  3.2907037e+00 1.67e-16 3.75e-02  -5.2 3.83e-02    -  1.00e+00 1.00e+00h  1
   4  3.2406187e+00 1.67e-16 3.47e-02  -4.4 4.86e-02    -  1.00e+00 3.99e-01h  1
   5  3.1436092e+00 2.70e-04 4.37e-02  -4.2 1.34e-01    -  1.00e+00 3.13e-01h  1
   6  3.0538774e+00 3.16e-03 3.28e-01  -3.0 1.70e-01    -  8.73e-01 4.68e-01f  1
   7  3.0542648e+00 1.39e-16 2.85e-02  -3.2 3.19e-02    -  9.59e-01 1.00e+00h  1
   8  3.0032227e+00 1.53e-16 2.54e-02  -3.5 4.68e-02    -  9.61e-01 1.00e+00h  1
   9  2.9649895e+00 1.67e-16 1.26e-02  -4.1 6.43e-02    -  9.99e-01 1.00e+00h  1
iter    objective    inf_pr   inf_du lg(mu)  ||d||  lg(rg) alpha_du alpha_pr  ls
  10  2.9551865e+00 9.71e-17 1.58e-02  -5.0 1.93e-02    -  1.00e+00 1.00e+00h  1
  11  2.9368070e+00 8.33e-17 1.60e-02  -5.1 4.32e-02    -  1.00e+00 6.71e-01h  1
  12  2.9214047e+00 2.63e-04 3.55e-02  -5.4 3.63e-02    -  1.00e+00 1.00e+00h  1
  13  2.9064708e+00 1.80e-16 1.29e-02  -4.5 2.07e-02    -  1.00e+00 1.00e+00h  1
  14  2.8980406e+00 1.53e-16 8.35e-03  -4.9 1.49e-02    -  1.00e+00 1.00e+00h  1
  15  2.8920045e+00 1.39e-16 1.15e-02  -4.6 2.16e-02    -  1.00e+00 5.10e-01h  1
  16  2.8843355e+00 9.71e-17 1.39e-02  -4.4 1.70e-02    -  1.00e+00 7.23e-01h  1
  17  2.8741508e+00 1.92e-03 9.72e-03  -4.8 2.08e-02    -  1.00e+00 9.86e-01h  1
  18  2.8664364e+00 2.07e-03 5.19e-03  -5.5 2.11e-02    -  1.00e+00 1.00e+00h  1
  19  2.8621054e+00 1.02e-04 7.36e-03  -4.5 1.29e-02    -  1.00e+00 9.04e-01h  1
iter    objective    inf_pr   inf_du lg(mu)  ||d||  lg(rg) alpha_du alpha_pr  ls
  20  2.8566702e+00 2.50e-16 7.41e-03  -5.2 1.51e-02    -  1.00e+00 1.00e+00h  1
  21  2.8522377e+00 1.13e-04 5.83e-03  -5.2 1.70e-02    -  1.00e+00 7.37e-01h  1
  22  2.8513330e+00 1.67e-16 6.79e-03  -4.7 7.20e-03    -  1.00e+00 1.00e+00h  1
  23  2.8476249e+00 7.56e-05 3.69e-03  -5.6 1.55e-02    -  1.00e+00 1.00e+00h  1

Number of Iterations....: 23

                                   (scaled)                 (unscaled)
Objective...............:   2.8476249092245037e-01    2.8476249092245034e+00
Dual infeasibility......:   3.6912709962461142e-03    3.6912709962461140e-02
Constraint violation....:   7.5553464833566508e-05    7.5553464833566508e-05
Complementarity.........:   1.9744406727749224e-05    1.9744406727749224e-04
Overall NLP error.......:   3.6912709962461142e-03    3.6912709962461140e-02


Number of objective function evaluations             = 24
Number of objective gradient evaluations             = 24
Number of equality constraint evaluations            = 24
Number of inequality constraint evaluations          = 24
Number of equality constraint Jacobian evaluations   = 24
Number of inequality constraint Jacobian evaluations = 24
Number of Lagrangian Hessian evaluations             = 0
Total CPU secs in IPOPT (w/o function evaluations)   =      1.001
Total CPU secs in NLP function evaluations           =     62.528

EXIT: Optimal Solution Found.
